70
1 0 8
2 0 9
2 1 4
3 0 1
3 1 5
3 2 2
4 0 8
4 1 7
4 2 4
4 3 10
5 0 9
5 1 3
5 2 1
5 3 9
5 4 2
6 0 9
6 1 4
6 2 2
6 3 1
6 4 4
6 5 4
7 0 5
7 1 5
7 2 6
7 3 5
7 4 1
7 5 4
7 6 8
8 0 2
8 1 2
8 2 2
8 3 4
8 4 9
8 5 4
8 6 9
8 7 7
9 0 8
9 1 8
9 2 9
9 3 6
9 4 6
9 5 6
9 6 2
9 7 1
9 8 10
10 0 4
10 1 2
10 2 3
10 3 5
10 4 10
10 5 9
10 6 8
10 7 9
10 8 7
10 9 8
11 0 7
11 1 4
11 2 4
11 3 4
11 4 1
11 5 6
11 6 1
11 7 5
11 8 9
11 9 7
11 10 6
12 0 3
12 1 5
12 2 6
12 3 4
12 4 6
12 5 1
12 6 6
12 7 7
12 8 8
12 9 3
12 10 3
12 11 4
13 0 7
13 1 9
13 2 1
13 3 2
13 4 1
13 5 8
13 6 4
13 7 2
13 8 3
13 9 9
13 10 10
13 11 1
13 12 8
14 0 7
14 1 10
14 2 1
14 3 7
14 4 4
14 5 3
14 6 10
14 7 4
14 8 6
14 9 10
14 10 8
14 11 2
14 12 4
14 13 9
15 0 2
15 1 1
15 2 7
15 3 8
15 4 9
15 5 9
15 6 2
15 7 9
15 8 1
15 9 4
15 10 3
15 11 5
15 12 8
15 13 4
15 14 3
16 0 9
16 1 4
16 2 1
16 3 2
16 4 10
16 5 1
16 6 3
16 7 1
16 8 4
16 9 2
16 10 3
16 11 7
16 12 4
16 13 3
16 14 1
16 15 3
17 0 6
17 1 8
17 2 5
17 3 2
17 4 5
17 5 5
17 6 8
17 7 8
17 8 9
17 9 6
17 10 5
17 11 1
17 12 2
17 13 8
17 14 7
17 15 2
17 16 10
18 0 3
18 1 7
18 2 2
18 3 2
18 4 10
18 5 3
18 6 7
18 7 1
18 8 1
18 9 4
18 10 1
18 11 6
18 12 7
18 13 7
18 14 5
18 15 10
18 16 5
18 17 1
19 0 1
19 1 6
19 2 5
19 3 4
19 4 1
19 5 4
19 6 1
19 7 9
19 8 10
19 9 1
19 10 3
19 11 8
19 12 2
19 13 5
19 14 10
19 15 6
19 16 8
19 17 1
19 18 2
20 0 5
20 1 2
20 2 3
20 3 4
20 4 8
20 5 6
20 6 10
20 7 10
20 8 4
20 9 4
20 10 3
20 11 1
20 12 3
20 13 1
20 14 10
20 15 4
20 16 7
20 17 10
20 18 5
20 19 2
21 0 7
21 1 2
21 2 10
21 3 6
21 4 7
21 5 7
21 6 2
21 7 1
21 8 9
21 9 5
21 10 9
21 11 5
21 12 6
21 13 9
21 14 5
21 15 5
21 16 8
21 17 9
21 18 7
21 19 2
21 20 4
22 0 7
22 1 3
22 2 5
22 3 8
22 4 4
22 5 8
22 6 5
22 7 2
22 8 5
22 9 7
22 10 9
22 11 5
22 12 1
22 13 4
22 14 9
22 15 4
22 16 3
22 17 1
22 18 7
22 19 9
22 20 8
22 21 8
23 0 5
23 1 5
23 2 7
23 3 6
23 4 3
23 5 9
23 6 6
23 7 4
23 8 3
23 9 5
23 10 3
23 11 9
23 12 7
23 13 8
23 14 2
23 15 4
23 16 5
23 17 5
23 18 4
23 19 6
23 20 1
23 21 3
23 22 9
24 0 2
24 1 8
24 2 2
24 3 9
24 4 5
24 5 5
24 6 10
24 7 7
24 8 10
24 9 4
24 10 3
24 11 7
24 12 5
24 13 4
24 14 4
24 15 4
24 16 2
24 17 9
24 18 7
24 19 3
24 20 10
24 21 8
24 22 10
24 23 4
25 0 7
25 1 5
25 2 9
25 3 9
25 4 7
25 5 2
25 6 10
25 7 3
25 8 6
25 9 2
25 10 3
25 11 9
25 12 2
25 13 4
25 14 1
25 15 5
25 16 2
25 17 7
25 18 4
25 19 3
25 20 5
25 21 3
25 22 6
25 23 6
25 24 2
26 0 1
26 1 6
26 2 7
26 3 8
26 4 5
26 5 9
26 6 2
26 7 9
26 8 10
26 9 6
26 10 4
26 11 7
26 12 6
26 13 3
26 14 10
26 15 2
26 16 7
26 17 5
26 18 3
26 19 3
26 20 6
26 21 8
26 22 1
26 23 10
26 24 7
26 25 8
27 0 3
27 1 3
27 2 5
27 3 1
27 4 5
27 5 7
27 6 4
27 7 6
27 8 10
27 9 8
27 10 8
27 11 10
27 12 8
27 13 4
27 14 4
27 15 3
27 16 9
27 17 6
27 18 1
27 19 3
27 20 6
27 21 4
27 22 7
27 23 2
27 24 1
27 25 1
27 26 3
28 0 3
28 1 6
28 2 3
28 3 2
28 4 3
28 5 2
28 6 5
28 7 7
28 8 2
28 9 3
28 10 8
28 11 4
28 12 6
28 13 5
28 14 3
28 15 6
28 16 8
28 17 8
28 18 1
28 19 8
28 20 1
28 21 10
28 22 10
28 23 3
28 24 10
28 25 10
28 26 5
28 27 3
29 0 3
29 1 8
29 2 3
29 3 1
29 4 9
29 5 7
29 6 1
29 7 2
29 8 4
29 9 10
29 10 1
29 11 8
29 12 2
29 13 8
29 14 10
29 15 7
29 16 2
29 17 8
29 18 10
29 19 8
29 20 10
29 21 6
29 22 1
29 23 5
29 24 10
29 25 1
29 26 8
29 27 6
29 28 10
30 0 3
30 1 4
30 2 10
30 3 7
30 4 5
30 5 2
30 6 8
30 7 6
30 8 3
30 9 7
30 10 8
30 11 8
30 12 7
30 13 4
30 14 5
30 15 8
30 16 9
30 17 5
30 18 8
30 19 5
30 20 3
30 21 9
30 22 10
30 23 7
30 24 1
30 25 8
30 26 8
30 27 6
30 28 6
30 29 2
31 0 8
31 1 3
31 2 2
31 3 5
31 4 2
31 5 2
31 6 1
31 7 6
31 8 4
31 9 1
31 10 6
31 11 1
31 12 2
31 13 1
31 14 5
31 15 8
31 16 9
31 17 9
31 18 3
31 19 9
31 20 6
31 21 4
31 22 1
31 23 6
31 24 4
31 25 7
31 26 10
31 27 9
31 28 5
31 29 9
31 30 1
32 0 9
32 1 4
32 2 8
32 3 10
32 4 3
32 5 8
32 6 9
32 7 4
32 8 5
32 9 10
32 10 1
32 11 4
32 12 9
32 13 2
32 14 7
32 15 6
32 16 9
32 17 9
32 18 10
32 19 1
32 20 5
32 21 7
32 22 1
32 23 6
32 24 3
32 25 2
32 26 3
32 27 1
32 28 5
32 29 8
32 30 5
32 31 2
33 0 10
33 1 10
33 2 1
33 3 8
33 4 8
33 5 3
33 6 1
33 7 4
33 8 6
33 9 10
33 10 1
33 11 8
33 12 6
33 13 9
33 14 9
33 15 6
33 16 6
33 17 5
33 18 5
33 19 7
33 20 10
33 21 9
33 22 5
33 23 9
33 24 1
33 25 2
33 26 9
33 27 5
33 28 7
33 29 6
33 30 8
33 31 5
33 32 6
34 0 8
34 1 10
34 2 8
34 3 5
34 4 7
34 5 7
34 6 10
34 7 10
34 8 7
34 9 9
34 10 8
34 11 5
34 12 5
34 13 2
34 14 7
34 15 7
34 16 8
34 17 4
34 18 3
34 19 4
34 20 10
34 21 3
34 22 9
34 23 1
34 24 10
34 25 5
34 26 4
34 27 10
34 28 4
34 29 4
34 30 4
34 31 7
34 32 8
34 33 3
35 0 10
35 1 9
35 2 10
35 3 1
35 4 8
35 5 1
35 6 10
35 7 7
35 8 4
35 9 6
35 10 7
35 11 5
35 12 7
35 13 5
35 14 1
35 15 7
35 16 3
35 17 7
35 18 8
35 19 2
35 20 4
35 21 7
35 22 9
35 23 9
35 24 6
35 25 4
35 26 1
35 27 8
35 28 10
35 29 2
35 30 8
35 31 2
35 32 9
35 33 1
35 34 1
36 0 7
36 1 8
36 2 6
36 3 6
36 4 2
36 5 5
36 6 6
36 7 6
36 8 9
36 9 3
36 10 4
36 11 3
36 12 8
36 13 4
36 14 1
36 15 10
36 16 8
36 17 5
36 18 3
36 19 1
36 20 6
36 21 6
36 22 5
36 23 2
36 24 8
36 25 3
36 26 4
36 27 5
36 28 5
36 29 5
36 30 5
36 31 3
36 32 6
36 33 8
36 34 2
36 35 4
37 0 6
37 1 2
37 2 2
37 3 1
37 4 4
37 5 10
37 6 5
37 7 6
37 8 1
37 9 1
37 10 10
37 11 6
37 12 5
37 13 3
37 14 1
37 15 1
37 16 10
37 17 5
37 18 8
37 19 8
37 20 8
37 21 3
37 22 9
37 23 1
37 24 4
37 25 1
37 26 6
37 27 8
37 28 1
37 29 2
37 30 9
37 31 4
37 32 1
37 33 2
37 34 2
37 35 9
37 36 6
38 0 8
38 1 7
38 2 2
38 3 8
38 4 1
38 5 8
38 6 9
38 7 5
38 8 7
38 9 7
38 10 6
38 11 9
38 12 5
38 13 6
38 14 4
38 15 7
38 16 4
38 17 9
38 18 6
38 19 2
38 20 1
38 21 3
38 22 7
38 23 9
38 24 8
38 25 3
38 26 9
38 27 7
38 28 4
38 29 7
38 30 7
38 31 1
38 32 6
38 33 7
38 34 1
38 35 6
38 36 3
38 37 1
39 0 10
39 1 1
39 2 7
39 3 6
39 4 7
39 5 1
39 6 8
39 7 6
39 8 10
39 9 10
39 10 1
39 11 3
39 12 10
39 13 10
39 14 5
39 15 10
39 16 3
39 17 10
39 18 1
39 19 6
39 20 10
39 21 7
39 22 7
39 23 4
39 24 4
39 25 4
39 26 10
39 27 2
39 28 4
39 29 8
39 30 4
39 31 9
39 32 4
39 33 9
39 34 5
39 35 3
39 36 1
39 37 1
39 38 1
40 0 4
40 1 4
40 2 5
40 3 9
40 4 7
40 5 6
40 6 10
40 7 4
40 8 9
40 9 1
40 10 9
40 11 4
40 12 4
40 13 2
40 14 6
40 15 6
40 16 5
40 17 3
40 18 6
40 19 2
40 20 1
40 21 3
40 22 10
40 23 3
40 24 6
40 25 7
40 26 9
40 27 1
40 28 3
40 29 4
40 30 8
40 31 3
40 32 4
40 33 2
40 34 7
40 35 3
40 36 10
40 37 7
40 38 7
40 39 2
41 0 9
41 1 2
41 2 10
41 3 1
41 4 9
41 5 10
41 6 3
41 7 7
41 8 8
41 9 9
41 10 9
41 11 1
41 12 6
41 13 5
41 14 6
41 15 1
41 16 3
41 17 3
41 18 8
41 19 2
41 20 4
41 21 9
41 22 2
41 23 9
41 24 4
41 25 2
41 26 4
41 27 4
41 28 1
41 29 3
41 30 1
41 31 8
41 32 1
41 33 10
41 34 5
41 35 5
41 36 7
41 37 7
41 38 3
41 39 9
41 40 2
42 0 7
42 1 2
42 2 4
42 3 6
42 4 3
42 5 5
42 6 5
42 7 1
42 8 10
42 9 6
42 10 2
42 11 7
42 12 2
42 13 7
42 14 1
42 15 9
42 16 3
42 17 9
42 18 5
42 19 2
42 20 8
42 21 8
42 22 2
42 23 5
42 24 1
42 25 5
42 26 6
42 27 1
42 28 9
42 29 10
42 30 1
42 31 8
42 32 6
42 33 9
42 34 2
42 35 3
42 36 4
42 37 8
42 38 5
42 39 9
42 40 8
42 41 7
43 0 6
43 1 1
43 2 8
43 3 3
43 4 1
43 5 4
43 6 9
43 7 1
43 8 10
43 9 10
43 10 6
43 11 9
43 12 5
43 13 7
43 14 4
43 15 6
43 16 2
43 17 7
43 18 5
43 19 5
43 20 9
43 21 6
43 22 9
43 23 6
43 24 5
43 25 1
43 26 7
43 27 3
43 28 3
43 29 9
43 30 1
43 31 10
43 32 5
43 33 1
43 34 9
43 35 10
43 36 2
43 37 4
43 38 7
43 39 2
43 40 7
43 41 10
43 42 8
44 0 7
44 1 4
44 2 5
44 3 5
44 4 6
44 5 3
44 6 5
44 7 8
44 8 10
44 9 4
44 10 3
44 11 5
44 12 5
44 13 10
44 14 1
44 15 7
44 16 5
44 17 5
44 18 3
44 19 1
44 20 1
44 21 7
44 22 9
44 23 1
44 24 1
44 25 7
44 26 8
44 27 2
44 28 8
44 29 5
44 30 2
44 31 7
44 32 3
44 33 6
44 34 6
44 35 6
44 36 8
44 37 4
44 38 3
44 39 8
44 40 1
44 41 7
44 42 8
44 43 10
45 0 5
45 1 7
45 2 7
45 3 4
45 4 8
45 5 3
45 6 2
45 7 8
45 8 5
45 9 7
45 10 1
45 11 6
45 12 6
45 13 4
45 14 5
45 15 9
45 16 9
45 17 6
45 18 9
45 19 8
45 20 3
45 21 1
45 22 1
45 23 10
45 24 10
45 25 10
45 26 8
45 27 10
45 28 6
45 29 5
45 30 10
45 31 1
45 32 2
45 33 4
45 34 3
45 35 8
45 36 6
45 37 6
45 38 9
45 39 9
45 40 5
45 41 1
45 42 1
45 43 7
45 44 2
46 0 5
46 1 3
46 2 1
46 3 3
46 4 2
46 5 2
46 6 10
46 7 5
46 8 1
46 9 6
46 10 7
46 11 3
46 12 4
46 13 8
46 14 2
46 15 8
46 16 7
46 17 6
46 18 3
46 19 4
46 20 8
46 21 1
46 22 8
46 23 5
46 24 2
46 25 8
46 26 6
46 27 10
46 28 7
46 29 2
46 30 4
46 31 3
46 32 10
46 33 3
46 34 1
46 35 6
46 36 1
46 37 7
46 38 6
46 39 1
46 40 2
46 41 2
46 42 1
46 43 3
46 44 7
46 45 1
47 0 1
47 1 9
47 2 7
47 3 2
47 4 6
47 5 9
47 6 5
47 7 7
47 8 4
47 9 5
47 10 9
47 11 9
47 12 1
47 13 5
47 14 6
47 15 5
47 16 10
47 17 6
47 18 6
47 19 10
47 20 9
47 21 1
47 22 7
47 23 1
47 24 9
47 25 2
47 26 7
47 27 6
47 28 10
47 29 1
47 30 8
47 31 8
47 32 5
47 33 7
47 34 1
47 35 6
47 36 1
47 37 7
47 38 5
47 39 5
47 40 8
47 41 10
47 42 8
47 43 6
47 44 1
47 45 6
47 46 2
48 0 3
48 1 3
48 2 6
48 3 1
48 4 2
48 5 7
48 6 7
48 7 1
48 8 2
48 9 7
48 10 7
48 11 7
48 12 9
48 13 6
48 14 7
48 15 5
48 16 8
48 17 9
48 18 2
48 19 9
48 20 10
48 21 8
48 22 5
48 23 8
48 24 6
48 25 8
48 26 2
48 27 2
48 28 2
48 29 7
48 30 3
48 31 7
48 32 5
48 33 2
48 34 6
48 35 5
48 36 5
48 37 4
48 38 2
48 39 4
48 40 9
48 41 1
48 42 4
48 43 1
48 44 7
48 45 6
48 46 9
48 47 10
49 0 3
49 1 1
49 2 3
49 3 1
49 4 10
49 5 10
49 6 4
49 7 2
49 8 5
49 9 6
49 10 2
49 11 9
49 12 9
49 13 1
49 14 3
49 15 10
49 16 2
49 17 6
49 18 9
49 19 7
49 20 3
49 21 5
49 22 10
49 23 6
49 24 5
49 25 2
49 26 3
49 27 10
49 28 3
49 29 8
49 30 9
49 31 8
49 32 6
49 33 8
49 34 7
49 35 4
49 36 9
49 37 1
49 38 6
49 39 10
49 40 7
49 41 5
49 42 7
49 43 6
49 44 8
49 45 1
49 46 3
49 47 9
49 48 1
50 0 8
50 1 7
50 2 6
50 3 9
50 4 6
50 5 10
50 6 1
50 7 1
50 8 6
50 9 6
50 10 7
50 11 9
50 12 8
50 13 9
50 14 8
50 15 7
50 16 3
50 17 9
50 18 7
50 19 6
50 20 4
50 21 7
50 22 3
50 23 1
50 24 10
50 25 9
50 26 5
50 27 2
50 28 7
50 29 1
50 30 4
50 31 9
50 32 5
50 33 10
50 34 3
50 35 7
50 36 5
50 37 1
50 38 5
50 39 2
50 40 1
50 41 2
50 42 8
50 43 6
50 44 4
50 45 7
50 46 8
50 47 10
50 48 2
50 49 7
51 0 9
51 1 4
51 2 5
51 3 9
51 4 1
51 5 2
51 6 6
51 7 10
51 8 10
51 9 1
51 10 9
51 11 8
51 12 6
51 13 1
51 14 10
51 15 8
51 16 8
51 17 4
51 18 10
51 19 8
51 20 1
51 21 3
51 22 3
51 23 4
51 24 7
51 25 1
51 26 6
51 27 4
51 28 2
51 29 7
51 30 2
51 31 1
51 32 3
51 33 1
51 34 1
51 35 2
51 36 7
51 37 2
51 38 1
51 39 1
51 40 6
51 41 5
51 42 3
51 43 8
51 44 1
51 45 4
51 46 2
51 47 9
51 48 10
51 49 3
51 50 5
52 0 9
52 1 8
52 2 8
52 3 7
52 4 4
52 5 3
52 6 10
52 7 9
52 8 2
52 9 4
52 10 10
52 11 1
52 12 4
52 13 8
52 14 3
52 15 7
52 16 5
52 17 4
52 18 9
52 19 5
52 20 4
52 21 9
52 22 5
52 23 9
52 24 10
52 25 1
52 26 6
52 27 4
52 28 8
52 29 1
52 30 10
52 31 6
52 32 2
52 33 4
52 34 4
52 35 6
52 36 3
52 37 4
52 38 6
52 39 4
52 40 8
52 41 1
52 42 3
52 43 5
52 44 10
52 45 8
52 46 6
52 47 10
52 48 7
52 49 2
52 50 5
52 51 6
53 0 2
53 1 3
53 2 8
53 3 4
53 4 3
53 5 3
53 6 10
53 7 3
53 8 1
53 9 1
53 10 1
53 11 1
53 12 2
53 13 5
53 14 1
53 15 5
53 16 2
53 17 9
53 18 8
53 19 9
53 20 4
53 21 1
53 22 9
53 23 5
53 24 3
53 25 6
53 26 5
53 27 9
53 28 9
53 29 4
53 30 10
53 31 3
53 32 4
53 33 4
53 34 3
53 35 2
53 36 2
53 37 5
53 38 5
53 39 3
53 40 2
53 41 7
53 42 9
53 43 4
53 44 6
53 45 2
53 46 4
53 47 9
53 48 5
53 49 8
53 50 4
53 51 2
53 52 10
54 0 7
54 1 9
54 2 10
54 3 2
54 4 4
54 5 10
54 6 1
54 7 6
54 8 3
54 9 9
54 10 3
54 11 4
54 12 9
54 13 6
54 14 9
54 15 3
54 16 5
54 17 7
54 18 10
54 19 10
54 20 10
54 21 9
54 22 9
54 23 10
54 24 7
54 25 3
54 26 2
54 27 1
54 28 3
54 29 1
54 30 10
54 31 2
54 32 9
54 33 6
54 34 10
54 35 5
54 36 6
54 37 1
54 38 2
54 39 8
54 40 10
54 41 10
54 42 2
54 43 4
54 44 1
54 45 3
54 46 1
54 47 4
54 48 10
54 49 2
54 50 6
54 51 5
54 52 10
54 53 7
55 0 2
55 1 7
55 2 6
55 3 8
55 4 9
55 5 3
55 6 5
55 7 8
55 8 3
55 9 8
55 10 4
55 11 3
55 12 3
55 13 1
55 14 9
55 15 8
55 16 3
55 17 2
55 18 5
55 19 1
55 20 7
55 21 2
55 22 6
55 23 7
55 24 8
55 25 7
55 26 5
55 27 3
55 28 9
55 29 5
55 30 4
55 31 5
55 32 3
55 33 3
55 34 4
55 35 6
55 36 4
55 37 3
55 38 7
55 39 6
55 40 6
55 41 7
55 42 8
55 43 9
55 44 2
55 45 3
55 46 3
55 47 4
55 48 9
55 49 3
55 50 2
55 51 3
55 52 2
55 53 1
55 54 2
56 0 3
56 1 3
56 2 7
56 3 6
56 4 9
56 5 7
56 6 4
56 7 8
56 8 6
56 9 7
56 10 1
56 11 10
56 12 9
56 13 2
56 14 9
56 15 3
56 16 10
56 17 7
56 18 3
56 19 7
56 20 6
56 21 5
56 22 2
56 23 6
56 24 4
56 25 10
56 26 6
56 27 8
56 28 9
56 29 9
56 30 2
56 31 9
56 32 10
56 33 5
56 34 9
56 35 7
56 36 10
56 37 4
56 38 6
56 39 2
56 40 5
56 41 4
56 42 2
56 43 7
56 44 7
56 45 5
56 46 2
56 47 6
56 48 3
56 49 3
56 50 1
56 51 1
56 52 5
56 53 4
56 54 1
56 55 10
57 0 8
57 1 3
57 2 7
57 3 4
57 4 3
57 5 2
57 6 2
57 7 5
57 8 9
57 9 4
57 10 2
57 11 1
57 12 1
57 13 4
57 14 3
57 15 8
57 16 10
57 17 5
57 18 7
57 19 4
57 20 7
57 21 9
57 22 1
57 23 8
57 24 3
57 25 8
57 26 8
57 27 3
57 28 3
57 29 9
57 30 7
57 31 1
57 32 4
57 33 5
57 34 7
57 35 1
57 36 1
57 37 9
57 38 1
57 39 3
57 40 9
57 41 5
57 42 9
57 43 9
57 44 5
57 45 3
57 46 9
57 47 4
57 48 5
57 49 7
57 50 8
57 51 7
57 52 2
57 53 4
57 54 4
57 55 6
57 56 9
58 0 7
58 1 3
58 2 10
58 3 9
58 4 9
58 5 3
58 6 1
58 7 9
58 8 1
58 9 8
58 10 4
58 11 3
58 12 2
58 13 9
58 14 5
58 15 4
58 16 7
58 17 9
58 18 4
58 19 3
58 20 3
58 21 3
58 22 2
58 23 9
58 24 10
58 25 1
58 26 3
58 27 1
58 28 2
58 29 10
58 30 1
58 31 10
58 32 6
58 33 9
58 34 9
58 35 2
58 36 3
58 37 5
58 38 7
58 39 6
58 40 2
58 41 3
58 42 1
58 43 5
58 44 7
58 45 9
58 46 3
58 47 10
58 48 8
58 49 10
58 50 1
58 51 5
58 52 2
58 53 8
58 54 5
58 55 9
58 56 8
58 57 5
59 0 7
59 1 2
59 2 7
59 3 4
59 4 10
59 5 7
59 6 4
59 7 6
59 8 3
59 9 6
59 10 4
59 11 1
59 12 8
59 13 5
59 14 8
59 15 7
59 16 1
59 17 8
59 18 10
59 19 10
59 20 1
59 21 10
59 22 4
59 23 8
59 24 1
59 25 2
59 26 4
59 27 2
59 28 3
59 29 5
59 30 7
59 31 5
59 32 8
59 33 5
59 34 5
59 35 1
59 36 6
59 37 5
59 38 4
59 39 2
59 40 5
59 41 6
59 42 5
59 43 7
59 44 9
59 45 2
59 46 6
59 47 9
59 48 3
59 49 6
59 50 4
59 51 6
59 52 6
59 53 2
59 54 3
59 55 10
59 56 9
59 57 8
59 58 7
60 0 4
60 1 8
60 2 4
60 3 9
60 4 5
60 5 7
60 6 10
60 7 7
60 8 6
60 9 2
60 10 3
60 11 7
60 12 3
60 13 2
60 14 7
60 15 9
60 16 10
60 17 3
60 18 4
60 19 2
60 20 6
60 21 6
60 22 9
60 23 4
60 24 9
60 25 10
60 26 6
60 27 1
60 28 6
60 29 9
60 30 4
60 31 4
60 32 9
60 33 5
60 34 7
60 35 6
60 36 7
60 37 4
60 38 2
60 39 3
60 40 3
60 41 2
60 42 1
60 43 1
60 44 6
60 45 3
60 46 9
60 47 1
60 48 10
60 49 10
60 50 10
60 51 6
60 52 10
60 53 10
60 54 3
60 55 6
60 56 2
60 57 10
60 58 8
60 59 4
61 0 10
61 1 2
61 2 3
61 3 7
61 4 6
61 5 3
61 6 1
61 7 6
61 8 2
61 9 1
61 10 10
61 11 5
61 12 10
61 13 10
61 14 2
61 15 4
61 16 2
61 17 10
61 18 4
61 19 7
61 20 3
61 21 9
61 22 9
61 23 1
61 24 4
61 25 5
61 26 2
61 27 1
61 28 8
61 29 2
61 30 9
61 31 6
61 32 3
61 33 3
61 34 9
61 35 5
61 36 4
61 37 7
61 38 7
61 39 9
61 40 8
61 41 2
61 42 1
61 43 2
61 44 10
61 45 7
61 46 4
61 47 2
61 48 3
61 49 5
61 50 2
61 51 3
61 52 7
61 53 3
61 54 6
61 55 9
61 56 9
61 57 10
61 58 1
61 59 4
61 60 2
62 0 3
62 1 1
62 2 5
62 3 9
62 4 4
62 5 1
62 6 10
62 7 10
62 8 8
62 9 3
62 10 7
62 11 2
62 12 9
62 13 9
62 14 8
62 15 1
62 16 7
62 17 2
62 18 8
62 19 9
62 20 4
62 21 7
62 22 5
62 23 4
62 24 7
62 25 1
62 26 7
62 27 10
62 28 5
62 29 7
62 30 7
62 31 3
62 32 7
62 33 4
62 34 10
62 35 6
62 36 6
62 37 5
62 38 4
62 39 3
62 40 7
62 41 10
62 42 5
62 43 9
62 44 9
62 45 9
62 46 4
62 47 7
62 48 10
62 49 8
62 50 6
62 51 6
62 52 5
62 53 5
62 54 3
62 55 7
62 56 1
62 57 2
62 58 5
62 59 5
62 60 3
62 61 8
63 0 2
63 1 9
63 2 5
63 3 1
63 4 6
63 5 8
63 6 2
63 7 3
63 8 4
63 9 2
63 10 6
63 11 3
63 12 4
63 13 9
63 14 6
63 15 7
63 16 9
63 17 4
63 18 7
63 19 7
63 20 6
63 21 8
63 22 6
63 23 3
63 24 2
63 25 6
63 26 10
63 27 5
63 28 9
63 29 8
63 30 8
63 31 10
63 32 9
63 33 10
63 34 8
63 35 6
63 36 5
63 37 3
63 38 3
63 39 4
63 40 4
63 41 2
63 42 8
63 43 6
63 44 2
63 45 3
63 46 6
63 47 1
63 48 7
63 49 7
63 50 6
63 51 10
63 52 6
63 53 9
63 54 9
63 55 7
63 56 2
63 57 1
63 58 7
63 59 8
63 60 3
63 61 8
63 62 3
64 0 10
64 1 1
64 2 9
64 3 6
64 4 8
64 5 6
64 6 2
64 7 8
64 8 1
64 9 1
64 10 2
64 11 10
64 12 1
64 13 4
64 14 10
64 15 4
64 16 4
64 17 10
64 18 3
64 19 8
64 20 5
64 21 3
64 22 8
64 23 8
64 24 9
64 25 1
64 26 5
64 27 7
64 28 8
64 29 2
64 30 5
64 31 7
64 32 10
64 33 2
64 34 8
64 35 4
64 36 3
64 37 8
64 38 1
64 39 5
64 40 7
64 41 3
64 42 1
64 43 3
64 44 10
64 45 7
64 46 1
64 47 10
64 48 8
64 49 6
64 50 2
64 51 7
64 52 4
64 53 2
64 54 1
64 55 4
64 56 6
64 57 7
64 58 8
64 59 2
64 60 9
64 61 7
64 62 5
64 63 5
65 0 4
65 1 3
65 2 10
65 3 7
65 4 6
65 5 1
65 6 2
65 7 6
65 8 8
65 9 9
65 10 1
65 11 7
65 12 8
65 13 8
65 14 1
65 15 7
65 16 6
65 17 7
65 18 1
65 19 2
65 20 3
65 21 3
65 22 5
65 23 6
65 24 1
65 25 8
65 26 5
65 27 10
65 28 7
65 29 6
65 30 10
65 31 7
65 32 2
65 33 10
65 34 3
65 35 10
65 36 7
65 37 7
65 38 6
65 39 4
65 40 7
65 41 6
65 42 1
65 43 8
65 44 10
65 45 6
65 46 10
65 47 4
65 48 8
65 49 4
65 50 3
65 51 7
65 52 7
65 53 8
65 54 9
65 55 10
65 56 6
65 57 4
65 58 10
65 59 10
65 60 7
65 61 9
65 62 1
65 63 10
65 64 4
66 0 7
66 1 9
66 2 1
66 3 1
66 4 3
66 5 2
66 6 7
66 7 1
66 8 9
66 9 6
66 10 4
66 11 2
66 12 7
66 13 2
66 14 7
66 15 9
66 16 5
66 17 9
66 18 5
66 19 10
66 20 3
66 21 4
66 22 3
66 23 2
66 24 10
66 25 9
66 26 9
66 27 1
66 28 1
66 29 6
66 30 7
66 31 6
66 32 7
66 33 8
66 34 9
66 35 3
66 36 1
66 37 4
66 38 10
66 39 7
66 40 3
66 41 8
66 42 2
66 43 10
66 44 3
66 45 1
66 46 3
66 47 9
66 48 9
66 49 9
66 50 7
66 51 6
66 52 2
66 53 6
66 54 5
66 55 4
66 56 7
66 57 6
66 58 10
66 59 2
66 60 4
66 61 9
66 62 6
66 63 8
66 64 4
66 65 8
67 0 10
67 1 3
67 2 2
67 3 3
67 4 4
67 5 2
67 6 3
67 7 1
67 8 3
67 9 3
67 10 1
67 11 9
67 12 9
67 13 1
67 14 6
67 15 8
67 16 5
67 17 2
67 18 6
67 19 6
67 20 10
67 21 5
67 22 1
67 23 2
67 24 5
67 25 2
67 26 9
67 27 1
67 28 10
67 29 7
67 30 6
67 31 3
67 32 7
67 33 6
67 34 4
67 35 10
67 36 2
67 37 3
67 38 10
67 39 8
67 40 4
67 41 5
67 42 1
67 43 1
67 44 3
67 45 4
67 46 9
67 47 10
67 48 4
67 49 8
67 50 8
67 51 4
67 52 4
67 53 9
67 54 8
67 55 10
67 56 5
67 57 9
67 58 7
67 59 2
67 60 1
67 61 10
67 62 3
67 63 6
67 64 9
67 65 5
67 66 7
68 0 8
68 1 5
68 2 2
68 3 3
68 4 9
68 5 6
68 6 7
68 7 10
68 8 3
68 9 7
68 10 2
68 11 7
68 12 7
68 13 4
68 14 10
68 15 9
68 16 8
68 17 2
68 18 1
68 19 4
68 20 10
68 21 6
68 22 3
68 23 10
68 24 4
68 25 10
68 26 4
68 27 10
68 28 4
68 29 8
68 30 10
68 31 1
68 32 10
68 33 8
68 34 1
68 35 6
68 36 3
68 37 7
68 38 8
68 39 1
68 40 5
68 41 9
68 42 3
68 43 4
68 44 4
68 45 8
68 46 1
68 47 6
68 48 8
68 49 8
68 50 7
68 51 7
68 52 9
68 53 4
68 54 1
68 55 4
68 56 10
68 57 9
68 58 7
68 59 2
68 60 6
68 61 3
68 62 3
68 63 3
68 64 5
68 65 1
68 66 4
68 67 2
69 0 10
69 1 8
69 2 3
69 3 10
69 4 3
69 5 5
69 6 8
69 7 2
69 8 6
69 9 8
69 10 2
69 11 7
69 12 5
69 13 4
69 14 10
69 15 8
69 16 6
69 17 3
69 18 8
69 19 10
69 20 8
69 21 4
69 22 1
69 23 1
69 24 2
69 25 10
69 26 5
69 27 1
69 28 7
69 29 7
69 30 7
69 31 9
69 32 4
69 33 6
69 34 3
69 35 5
69 36 10
69 37 7
69 38 4
69 39 5
69 40 6
69 41 3
69 42 2
69 43 8
69 44 5
69 45 3
69 46 5
69 47 3
69 48 8
69 49 10
69 50 8
69 51 5
69 52 1
69 53 3
69 54 3
69 55 9
69 56 3
69 57 7
69 58 5
69 59 3
69 60 8
69 61 8
69 62 10
69 63 1
69 64 1
69 65 4
69 66 6
69 67 7
69 68 9
